# bulk Si via Stillinger-Weber

units			metal
atom_style		atomic

# tetrahedral structure: diamond
# 5.431 is lattice constant in Angstrom
variable 		L equal 6
lattice			diamond 5.431
region          myBox block 0 ${L} 0 ${L} 0 ${L}
create_box      1 myBox
create_atoms    1 box

#create_atoms 1 single 10    10    10 units box
#create_atoms 1 single 12.5  10    10 units box
#create_atoms 1 single 11.25  12.5  10 units box
#create_atoms 1 single 11.25 11.25 12.5 units box

#create_atoms 1 single 10 10 10 units box
#create_atoms 1 single 12.5 10 10 units box
#create_atoms 1 single 11.25 12.1651 10 units box
#create_atoms 1 single 13.75 12.1651 10 units box

# Use our neural network potential
pair_style		nnp
pair_coeff		* * ../Trained_networks/KEEP-21.07.08--29.10.2017-SW 3.77118

# mass in grams/mole -> atom number
mass            1 28.06
velocity		all create 500.0 12345 loop geom
neighbor		1.0 bin
fix				1 all nve
timestep		0.001 # Standard: 0.001

# Radial distribution function
compute myRDF all rdf 200
fix 2 all ave/time 100 10 1000 c_myRDF[*] file tmp_NNP.rdf mode vector


thermo_style custom step temp ke pe # etotal
thermo 100
thermo_modify norm yes

# dump positions for use in training
#dump mydump all xyz 1 enfil_nnp_6uc.xyz

# sampling run
run 1000
