# bulk Si via Stillinger-Weber
#1 8        0.095798
#2 64       0.865114
#3 216      2.72168
#4 512      6.44097
#5 1000     12.5461
#6 1728     21.5578
#7 2744     35.336
#8 4096     51.2844
#9 5832     72.3462
#10 8000
units			metal
atom_style		atomic

# tetrahedral structure: diamond
# 5.431 is lattice constant in Angstrom
variable 		L  equal 10    # Unit cells
variable        T  equal 500
variable        N  equal 100 # Timesteps to run
variable        Nt equal 0 # Timesteps to thermalize

lattice			diamond 5.431
region          myBox block 0 ${L} 0 ${L} 0 ${L}
create_box      1 myBox
create_atoms    1 box

#create_atoms 1 single 10    10    10 units box
#create_atoms 1 single 12.5  10    10 units box
#create_atoms 1 single 11.25  12.5  10 units box
#create_atoms 1 single 11.25 11.25 12.5 units box

#create_atoms 1 single 10 10 10 units box
#create_atoms 1 single 12.5 10 10 units box
#create_atoms 1 single 11.25 12.1651 10 units box
#create_atoms 1 single 13.75 12.1651 10 units box

# Use our neural network potential
pair_style		nnp
pair_coeff		* * ../Trained_networks/KEEP-22.38.19--31.10.2017-SW 3.77118

# mass in grams/mole -> atom number
mass            1 28.06
velocity		all create $T 12345 loop geom
neighbor		1.0 bin
fix				1 all nve
#fix             1 all nvt temp $T $T 0.01
timestep		0.001 # Standard: 0.001

# Thermalize system
run ${Nt}

# Radial distribution function
#compute myRDF all rdf 200
#fix 2 all ave/time 20 30 1000 c_myRDF[*] file tmp_NNP.rdf mode vector

# Compute MSD
#compute diffu all msd
#fix diffu all ave/time 10 1 10 c_diffu[4] file diffusion_NNP_T${T}.txt

thermo_style custom step temp ke pe #c_diffu[4]# etotal
thermo 20
thermo_modify norm yes

# dump positions for use in training
#dump mydump all xyz 1 enfil_nnp_6uc.xyz

# sampling run
run $N
