# bulk Si via Stillinger-Weber
units			metal
atom_style		atomic

# tetrahedral structure: diamond
# 5.431 is lattice constant in Angstrom
variable 		L  equal 10    # Unit cells
variable        T  equal 500
variable        N  equal 100 # Timesteps to run
variable        Nt equal 0 # Timesteps to thermalize

lattice			diamond 5.431
region			myBox block 0 ${L} 0 ${L} 0 ${L}
create_box		1 myBox
create_atoms	1 box

#create_atoms 1 single 10    10    10 units box
#create_atoms 1 single 12.5  10    10 units box
#create_atoms 1 single 11.25 12.5  10 units box
#create_atoms 1 single 11.25 11.25 12.5 units box

# Stillinger-Weber
pair_style		sw
pair_coeff		* * Si.sw Si

# mass in grams/mole -> atom number
mass            1 28.06
velocity		all create $T 12345 loop geom
neighbor		1.0 bin
#fix				1 all nve
fix             1 all nvt temp $T $T 0.01
#fix             1 all nvt temp 800 3500 0.01
timestep		0.001 # Standard: 0.001

# Thermalize system
run ${Nt}

# Dump forces for comparison
#dump myFdump all custom 1 Forces/dump_forces* fx fy fz

# Radial distribution function
#compute myRDF all rdf 200
#fix 2 all ave/time 20 30 1000 c_myRDF[*] file tmp_SW.rdf mode vector

# Compute MSD
compute diffu all msd
#fix diffu all ave/time 10 1 10 c_diffu[4] file diffusion_SW_T${T}.txt

thermo_style custom step temp ke pe c_diffu[4] #c_avePe
thermo 100
thermo_modify norm yes  # Extensive quantities are normalized or not.

# dump positions for use in training
#dump mydump all xyz 10 enfil_sw_2048p.xyz

# sampling run
run $N
